language Essence 1.3

letting can_fly be
        relation((1, 1), (1, 2), (1, 4), (1, 8), (1, 9), (1, 10), (1, 12), (1, 14), (1, 17), (1, 18), (1, 19), (1, 21),
                 (1, 24), (2, 1), (2, 3), (2, 4), (2, 8), (2, 9), (2, 11), (2, 12), (2, 13), (2, 15), (2, 19), (2, 20),
                 (2, 21), (2, 23), (3, 3), (3, 4), (3, 5), (3, 7), (3, 8), (3, 13), (3, 15), (3, 17), (3, 19), (4, 3),
                 (4, 5), (4, 6), (4, 7), (4, 8), (4, 12), (4, 14), (4, 16), (4, 18), (4, 20), (4, 23), (4, 24), (5, 1),
                 (5, 3), (5, 9), (5, 16), (5, 17), (5, 20), (5, 22), (6, 3), (6, 4), (6, 9), (6, 10), (6, 11), (6, 13),
                 (6, 15), (6, 16), (6, 17), (6, 18), (6, 20), (6, 24), (7, 1), (7, 2), (7, 3), (7, 4), (7, 6), (7, 7),
                 (7, 9), (7, 10), (7, 12), (7, 14), (7, 16), (7, 19), (7, 21), (7, 22), (7, 23), (7, 24), (8, 1),
                 (8, 4), (8, 5), (8, 7), (8, 9), (8, 11), (8, 14), (8, 15), (8, 16), (8, 17), (8, 18), (8, 19), (8, 24),
                 (9, 1), (9, 2), (9, 5), (9, 7), (9, 11), (9, 13), (9, 14), (9, 15), (9, 16), (9, 17), (9, 18), (9, 19),
                 (9, 20), (9, 23), (9, 24), (10, 1), (10, 2), (10, 6), (10, 9), (10, 12), (10, 13), (10, 14), (10, 15),
                 (10, 17), (10, 18), (10, 20), (10, 24), (11, 1), (11, 3), (11, 4), (11, 5), (11, 6), (11, 7), (11, 8),
                 (11, 9), (11, 10), (11, 11), (11, 13), (11, 14), (11, 15), (11, 16), (11, 17), (11, 18), (11, 21),
                 (11, 23), (11, 24), (12, 4), (12, 6), (12, 7), (12, 11), (12, 12), (12, 14), (12, 15), (12, 16),
                 (12, 18), (12, 19), (12, 22), (13, 1), (13, 3), (13, 4), (13, 11), (13, 12), (13, 13), (13, 14),
                 (13, 15), (13, 18), (13, 20), (13, 22), (13, 23), (13, 24), (14, 4), (14, 5), (14, 7), (14, 8),
                 (14, 10), (14, 11), (14, 12), (14, 13), (14, 14), (14, 15), (14, 17), (14, 18), (14, 20), (14, 22),
                 (14, 24))
$ Visualisation for can_fly
$  1  1
$  1  2
$  1  4
$  1  8
$  1  9
$  1 10
$  1 12
$  1 14
$  1 17
$  1 18
$  1 19
$  1 21
$  1 24
$  2  1
$  2  3
$  2  4
$  2  8
$  2  9
$  2 11
$  2 12
$  2 13
$  2 15
$  2 19
$  2 20
$  2 21
$  2 23
$  3  3
$  3  4
$  3  5
$  3  7
$  3  8
$  3 13
$  3 15
$  3 17
$  3 19
$  4  3
$  4  5
$  4  6
$  4  7
$  4  8
$  4 12
$  4 14
$  4 16
$  4 18
$  4 20
$  4 23
$  4 24
$  5  1
$  5  3
$  5  9
$  5 16
$  5 17
$  5 20
$  5 22
$  6  3
$  6  4
$  6  9
$  6 10
$  6 11
$  6 13
$  6 15
$  6 16
$  6 17
$  6 18
$  6 20
$  6 24
$  7  1
$  7  2
$  7  3
$  7  4
$  7  6
$  7  7
$  7  9
$  7 10
$  7 12
$  7 14
$  7 16
$  7 19
$  7 21
$  7 22
$  7 23
$  7 24
$  8  1
$  8  4
$  8  5
$  8  7
$  8  9
$  8 11
$  8 14
$  8 15
$  8 16
$  8 17
$  8 18
$  8 19
$  8 24
$  9  1
$  9  2
$  9  5
$  9  7
$  9 11
$  9 13
$  9 14
$  9 15
$  9 16
$  9 17
$  9 18
$  9 19
$  9 20
$  9 23
$  9 24
$ 10  1
$ 10  2
$ 10  6
$ 10  9
$ 10 12
$ 10 13
$ 10 14
$ 10 15
$ 10 17
$ 10 18
$ 10 20
$ 10 24
$ 11  1
$ 11  3
$ 11  4
$ 11  5
$ 11  6
$ 11  7
$ 11  8
$ 11  9
$ 11 10
$ 11 11
$ 11 13
$ 11 14
$ 11 15
$ 11 16
$ 11 17
$ 11 18
$ 11 21
$ 11 23
$ 11 24
$ 12  4
$ 12  6
$ 12  7
$ 12 11
$ 12 12
$ 12 14
$ 12 15
$ 12 16
$ 12 18
$ 12 19
$ 12 22
$ 13  1
$ 13  3
$ 13  4
$ 13 11
$ 13 12
$ 13 13
$ 13 14
$ 13 15
$ 13 18
$ 13 20
$ 13 22
$ 13 23
$ 13 24
$ 14  4
$ 14  5
$ 14  7
$ 14  8
$ 14 10
$ 14 11
$ 14 12
$ 14 13
$ 14 14
$ 14 15
$ 14 17
$ 14 18
$ 14 20
$ 14 22
$ 14 24

letting carry_in be
        function(1 --> 23, 2 --> 8, 3 --> 7, 4 --> 6, 5 --> 20, 6 --> 9, 7 --> 13, 8 --> 18, 9 --> 16, 10 --> 17,
                 11 --> 14, 12 --> 15, 13 --> 5, 14 --> 3)
letting maint be {1, 4, 5, 6, 10, 11, 12, 15, 17, 19, 20, 23}
letting maint_freq be 9
letting n_flights be 24
letting n_planes be 14
letting network be
        relation((1, 1), (1, 2), (1, 3), (1, 12), (1, 13), (1, 14), (1, 15), (1, 16), (1, 18), (1, 20), (1, 24), (2, 1),
                 (2, 2), (2, 3), (2, 4), (2, 5), (2, 7), (2, 9), (2, 11), (2, 12), (2, 14), (2, 16), (2, 18), (2, 20),
                 (2, 21), (2, 23), (3, 1), (3, 2), (3, 3), (3, 4), (3, 7), (3, 8), (3, 9), (3, 10), (3, 14), (3, 16),
                 (3, 17), (3, 20), (3, 21), (3, 23), (3, 24), (4, 1), (4, 2), (4, 6), (4, 10), (4, 12), (4, 14),
                 (4, 17), (4, 18), (4, 22), (4, 23), (4, 24), (5, 3), (5, 5), (5, 7), (5, 10), (5, 11), (5, 15),
                 (5, 16), (5, 17), (5, 18), (5, 21), (5, 23), (5, 24), (6, 1), (6, 2), (6, 4), (6, 5), (6, 6), (6, 7),
                 (6, 9), (6, 11), (6, 17), (6, 18), (6, 19), (6, 22), (6, 23), (6, 24), (7, 3), (7, 4), (7, 8), (7, 13),
                 (7, 14), (7, 15), (7, 18), (7, 19), (7, 22), (7, 24), (8, 2), (8, 7), (8, 8), (8, 10), (8, 11),
                 (8, 12), (8, 15), (8, 18), (8, 21), (8, 23), (9, 1), (9, 2), (9, 5), (9, 6), (9, 7), (9, 12), (9, 13),
                 (9, 15), (9, 17), (9, 18), (9, 20), (9, 22), (9, 23), (10, 2), (10, 4), (10, 5), (10, 10), (10, 12),
                 (10, 13), (10, 15), (10, 18), (10, 19), (10, 22), (10, 23), (11, 2), (11, 6), (11, 8), (11, 9),
                 (11, 12), (11, 14), (11, 15), (11, 16), (11, 20), (11, 21), (12, 1), (12, 2), (12, 3), (12, 4),
                 (12, 6), (12, 7), (12, 8), (12, 9), (12, 11), (12, 14), (12, 15), (12, 16), (12, 20), (12, 23),
                 (12, 24), (13, 1), (13, 2), (13, 3), (13, 5), (13, 7), (13, 8), (13, 9), (13, 11), (13, 12), (13, 13),
                 (13, 14), (13, 18), (13, 20), (13, 21), (13, 22), (13, 23), (14, 2), (14, 3), (14, 5), (14, 6),
                 (14, 8), (14, 12), (14, 14), (14, 16), (14, 18), (14, 20), (14, 24), (15, 2), (15, 3), (15, 4),
                 (15, 7), (15, 9), (15, 10), (15, 11), (15, 12), (15, 13), (15, 15), (15, 16), (15, 17), (15, 18),
                 (15, 20), (16, 1), (16, 2), (16, 3), (16, 5), (16, 6), (16, 7), (16, 11), (16, 14), (16, 15), (16, 16),
                 (16, 18), (16, 19), (16, 20), (16, 21), (16, 22), (17, 1), (17, 2), (17, 3), (17, 4), (17, 6), (17, 7),
                 (17, 8), (17, 9), (17, 10), (17, 11), (17, 13), (17, 15), (17, 18), (17, 20), (17, 21), (17, 22),
                 (18, 8), (18, 9), (18, 14), (18, 15), (18, 18), (18, 22), (19, 1), (19, 5), (19, 6), (19, 8), (19, 9),
                 (19, 11), (19, 12), (19, 13), (19, 20), (19, 21), (19, 22), (19, 23), (20, 2), (20, 3), (20, 6),
                 (20, 7), (20, 8), (20, 9), (20, 10), (20, 11), (20, 12), (20, 13), (20, 22), (20, 24), (21, 7),
                 (21, 8), (21, 9), (21, 10), (21, 11), (21, 15), (21, 17), (21, 19), (21, 22), (21, 23), (21, 24),
                 (22, 3), (22, 6), (22, 9), (22, 10), (22, 11), (22, 13), (22, 17), (22, 19), (22, 21), (22, 22),
                 (22, 24), (23, 2), (23, 3), (23, 5), (23, 6), (23, 7), (23, 11), (23, 12), (23, 13), (23, 14),
                 (23, 16), (23, 17), (23, 18), (23, 20), (23, 21), (23, 24), (24, 2), (24, 4), (24, 7), (24, 8),
                 (24, 9), (24, 10), (24, 11), (24, 13), (24, 16), (24, 19), (24, 24))
$ Visualisation for network
$  1  1
$  1  2
$  1  3
$  1 12
$  1 13
$  1 14
$  1 15
$  1 16
$  1 18
$  1 20
$  1 24
$  2  1
$  2  2
$  2  3
$  2  4
$  2  5
$  2  7
$  2  9
$  2 11
$  2 12
$  2 14
$  2 16
$  2 18
$  2 20
$  2 21
$  2 23
$  3  1
$  3  2
$  3  3
$  3  4
$  3  7
$  3  8
$  3  9
$  3 10
$  3 14
$  3 16
$  3 17
$  3 20
$  3 21
$  3 23
$  3 24
$  4  1
$  4  2
$  4  6
$  4 10
$  4 12
$  4 14
$  4 17
$  4 18
$  4 22
$  4 23
$  4 24
$  5  3
$  5  5
$  5  7
$  5 10
$  5 11
$  5 15
$  5 16
$  5 17
$  5 18
$  5 21
$  5 23
$  5 24
$  6  1
$  6  2
$  6  4
$  6  5
$  6  6
$  6  7
$  6  9
$  6 11
$  6 17
$  6 18
$  6 19
$  6 22
$  6 23
$  6 24
$  7  3
$  7  4
$  7  8
$  7 13
$  7 14
$  7 15
$  7 18
$  7 19
$  7 22
$  7 24
$  8  2
$  8  7
$  8  8
$  8 10
$  8 11
$  8 12
$  8 15
$  8 18
$  8 21
$  8 23
$  9  1
$  9  2
$  9  5
$  9  6
$  9  7
$  9 12
$  9 13
$  9 15
$  9 17
$  9 18
$  9 20
$  9 22
$  9 23
$ 10  2
$ 10  4
$ 10  5
$ 10 10
$ 10 12
$ 10 13
$ 10 15
$ 10 18
$ 10 19
$ 10 22
$ 10 23
$ 11  2
$ 11  6
$ 11  8
$ 11  9
$ 11 12
$ 11 14
$ 11 15
$ 11 16
$ 11 20
$ 11 21
$ 12  1
$ 12  2
$ 12  3
$ 12  4
$ 12  6
$ 12  7
$ 12  8
$ 12  9
$ 12 11
$ 12 14
$ 12 15
$ 12 16
$ 12 20
$ 12 23
$ 12 24
$ 13  1
$ 13  2
$ 13  3
$ 13  5
$ 13  7
$ 13  8
$ 13  9
$ 13 11
$ 13 12
$ 13 13
$ 13 14
$ 13 18
$ 13 20
$ 13 21
$ 13 22
$ 13 23
$ 14  2
$ 14  3
$ 14  5
$ 14  6
$ 14  8
$ 14 12
$ 14 14
$ 14 16
$ 14 18
$ 14 20
$ 14 24
$ 15  2
$ 15  3
$ 15  4
$ 15  7
$ 15  9
$ 15 10
$ 15 11
$ 15 12
$ 15 13
$ 15 15
$ 15 16
$ 15 17
$ 15 18
$ 15 20
$ 16  1
$ 16  2
$ 16  3
$ 16  5
$ 16  6
$ 16  7
$ 16 11
$ 16 14
$ 16 15
$ 16 16
$ 16 18
$ 16 19
$ 16 20
$ 16 21
$ 16 22
$ 17  1
$ 17  2
$ 17  3
$ 17  4
$ 17  6
$ 17  7
$ 17  8
$ 17  9
$ 17 10
$ 17 11
$ 17 13
$ 17 15
$ 17 18
$ 17 20
$ 17 21
$ 17 22
$ 18  8
$ 18  9
$ 18 14
$ 18 15
$ 18 18
$ 18 22
$ 19  1
$ 19  5
$ 19  6
$ 19  8
$ 19  9
$ 19 11
$ 19 12
$ 19 13
$ 19 20
$ 19 21
$ 19 22
$ 19 23
$ 20  2
$ 20  3
$ 20  6
$ 20  7
$ 20  8
$ 20  9
$ 20 10
$ 20 11
$ 20 12
$ 20 13
$ 20 22
$ 20 24
$ 21  7
$ 21  8
$ 21  9
$ 21 10
$ 21 11
$ 21 15
$ 21 17
$ 21 19
$ 21 22
$ 21 23
$ 21 24
$ 22  3
$ 22  6
$ 22  9
$ 22 10
$ 22 11
$ 22 13
$ 22 17
$ 22 19
$ 22 21
$ 22 22
$ 22 24
$ 23  2
$ 23  3
$ 23  5
$ 23  6
$ 23  7
$ 23 11
$ 23 12
$ 23 13
$ 23 14
$ 23 16
$ 23 17
$ 23 18
$ 23 20
$ 23 21
$ 23 24
$ 24  2
$ 24  4
$ 24  7
$ 24  8
$ 24  9
$ 24 10
$ 24 11
$ 24 13
$ 24 16
$ 24 19
$ 24 24

